c n orig vars 114
p cnf 543 1782
115 -1 0
115 -2 0
-115 1 2 0
116 -3 0
116 -4 0
-116 3 4 0
117 -5 0
117 -6 0
-117 5 6 0
118 -7 0
118 -8 0
-118 7 8 0
119 -9 0
119 -10 0
-119 9 10 0
120 -11 0
120 -12 0
-120 11 12 0
121 -13 0
121 -14 0
-121 13 14 0
122 -15 0
122 -16 0
-122 15 16 0
123 -17 0
123 -18 0
-123 17 18 0
124 -19 0
124 -20 0
-124 19 20 0
125 -21 0
125 -22 0
-125 21 22 0
126 -23 0
126 -24 0
-126 23 24 0
-127 115 0
-127 116 0
-127 117 0
-127 118 0
-127 119 0
-127 120 0
-127 121 0
-127 122 0
-127 123 0
-127 124 0
-127 125 0
-127 126 0
127 -115 -116 -117 -118 -119 -120 -121 -122 -123 -124 -125 -126 0
-127 0
128 -25 0
128 -35 0
128 -45 0
128 -55 0
128 -65 0
128 -75 0
128 -85 0
128 -95 0
128 -105 0
-128 25 35 45 55 65 75 85 95 105 0
129 -26 0
129 -36 0
129 -46 0
129 -56 0
129 -66 0
129 -76 0
129 -86 0
129 -96 0
129 -106 0
-129 26 36 46 56 66 76 86 96 106 0
130 -27 0
130 -37 0
130 -47 0
130 -57 0
130 -67 0
130 -77 0
130 -87 0
130 -97 0
130 -107 0
-130 27 37 47 57 67 77 87 97 107 0
131 -28 0
131 -38 0
131 -48 0
131 -58 0
131 -68 0
131 -78 0
131 -88 0
131 -98 0
131 -108 0
-131 28 38 48 58 68 78 88 98 108 0
132 -29 0
132 -39 0
132 -49 0
132 -59 0
132 -69 0
132 -79 0
132 -89 0
132 -99 0
132 -109 0
-132 29 39 49 59 69 79 89 99 109 0
133 -30 0
133 -40 0
133 -50 0
133 -60 0
133 -70 0
133 -80 0
133 -90 0
133 -100 0
133 -110 0
-133 30 40 50 60 70 80 90 100 110 0
134 -31 0
134 -41 0
134 -51 0
134 -61 0
134 -71 0
134 -81 0
134 -91 0
134 -101 0
134 -111 0
-134 31 41 51 61 71 81 91 101 111 0
135 -32 0
135 -42 0
135 -52 0
135 -62 0
135 -72 0
135 -82 0
135 -92 0
135 -102 0
135 -112 0
-135 32 42 52 62 72 82 92 102 112 0
136 -33 0
136 -43 0
136 -53 0
136 -63 0
136 -73 0
136 -83 0
136 -93 0
136 -103 0
136 -113 0
-136 33 43 53 63 73 83 93 103 113 0
137 -34 0
137 -44 0
137 -54 0
137 -64 0
137 -74 0
137 -84 0
137 -94 0
137 -104 0
137 -114 0
-137 34 44 54 64 74 84 94 104 114 0
138 25 0
138 26 0
-138 -25 -26 0
139 25 0
139 27 0
-139 -25 -27 0
140 25 0
140 28 0
-140 -25 -28 0
141 25 0
141 29 0
-141 -25 -29 0
142 25 0
142 30 0
-142 -25 -30 0
143 25 0
143 31 0
-143 -25 -31 0
144 25 0
144 32 0
-144 -25 -32 0
145 25 0
145 33 0
-145 -25 -33 0
146 25 0
146 34 0
-146 -25 -34 0
147 26 0
147 27 0
-147 -26 -27 0
148 26 0
148 28 0
-148 -26 -28 0
149 26 0
149 29 0
-149 -26 -29 0
150 26 0
150 30 0
-150 -26 -30 0
151 26 0
151 31 0
-151 -26 -31 0
152 26 0
152 32 0
-152 -26 -32 0
153 26 0
153 33 0
-153 -26 -33 0
154 26 0
154 34 0
-154 -26 -34 0
155 27 0
155 28 0
-155 -27 -28 0
156 27 0
156 29 0
-156 -27 -29 0
157 27 0
157 30 0
-157 -27 -30 0
158 27 0
158 31 0
-158 -27 -31 0
159 27 0
159 32 0
-159 -27 -32 0
160 27 0
160 33 0
-160 -27 -33 0
161 27 0
161 34 0
-161 -27 -34 0
162 28 0
162 29 0
-162 -28 -29 0
163 28 0
163 30 0
-163 -28 -30 0
164 28 0
164 31 0
-164 -28 -31 0
165 28 0
165 32 0
-165 -28 -32 0
166 28 0
166 33 0
-166 -28 -33 0
167 28 0
167 34 0
-167 -28 -34 0
168 29 0
168 30 0
-168 -29 -30 0
169 29 0
169 31 0
-169 -29 -31 0
170 29 0
170 32 0
-170 -29 -32 0
171 29 0
171 33 0
-171 -29 -33 0
172 29 0
172 34 0
-172 -29 -34 0
173 30 0
173 31 0
-173 -30 -31 0
174 30 0
174 32 0
-174 -30 -32 0
175 30 0
175 33 0
-175 -30 -33 0
176 30 0
176 34 0
-176 -30 -34 0
177 31 0
177 32 0
-177 -31 -32 0
178 31 0
178 33 0
-178 -31 -33 0
179 31 0
179 34 0
-179 -31 -34 0
180 32 0
180 33 0
-180 -32 -33 0
181 32 0
181 34 0
-181 -32 -34 0
182 33 0
182 34 0
-182 -33 -34 0
183 35 0
183 36 0
-183 -35 -36 0
184 35 0
184 37 0
-184 -35 -37 0
185 35 0
185 38 0
-185 -35 -38 0
186 35 0
186 39 0
-186 -35 -39 0
187 35 0
187 40 0
-187 -35 -40 0
188 35 0
188 41 0
-188 -35 -41 0
189 35 0
189 42 0
-189 -35 -42 0
190 35 0
190 43 0
-190 -35 -43 0
191 35 0
191 44 0
-191 -35 -44 0
192 36 0
192 37 0
-192 -36 -37 0
193 36 0
193 38 0
-193 -36 -38 0
194 36 0
194 39 0
-194 -36 -39 0
195 36 0
195 40 0
-195 -36 -40 0
196 36 0
196 41 0
-196 -36 -41 0
197 36 0
197 42 0
-197 -36 -42 0
198 36 0
198 43 0
-198 -36 -43 0
199 36 0
199 44 0
-199 -36 -44 0
200 37 0
200 38 0
-200 -37 -38 0
201 37 0
201 39 0
-201 -37 -39 0
202 37 0
202 40 0
-202 -37 -40 0
203 37 0
203 41 0
-203 -37 -41 0
204 37 0
204 42 0
-204 -37 -42 0
205 37 0
205 43 0
-205 -37 -43 0
206 37 0
206 44 0
-206 -37 -44 0
207 38 0
207 39 0
-207 -38 -39 0
208 38 0
208 40 0
-208 -38 -40 0
209 38 0
209 41 0
-209 -38 -41 0
210 38 0
210 42 0
-210 -38 -42 0
211 38 0
211 43 0
-211 -38 -43 0
212 38 0
212 44 0
-212 -38 -44 0
213 39 0
213 40 0
-213 -39 -40 0
214 39 0
214 41 0
-214 -39 -41 0
215 39 0
215 42 0
-215 -39 -42 0
216 39 0
216 43 0
-216 -39 -43 0
217 39 0
217 44 0
-217 -39 -44 0
218 40 0
218 41 0
-218 -40 -41 0
219 40 0
219 42 0
-219 -40 -42 0
220 40 0
220 43 0
-220 -40 -43 0
221 40 0
221 44 0
-221 -40 -44 0
222 41 0
222 42 0
-222 -41 -42 0
223 41 0
223 43 0
-223 -41 -43 0
224 41 0
224 44 0
-224 -41 -44 0
225 42 0
225 43 0
-225 -42 -43 0
226 42 0
226 44 0
-226 -42 -44 0
227 43 0
227 44 0
-227 -43 -44 0
228 45 0
228 46 0
-228 -45 -46 0
229 45 0
229 47 0
-229 -45 -47 0
230 45 0
230 48 0
-230 -45 -48 0
231 45 0
231 49 0
-231 -45 -49 0
232 45 0
232 50 0
-232 -45 -50 0
233 45 0
233 51 0
-233 -45 -51 0
234 45 0
234 52 0
-234 -45 -52 0
235 45 0
235 53 0
-235 -45 -53 0
236 45 0
236 54 0
-236 -45 -54 0
237 46 0
237 47 0
-237 -46 -47 0
238 46 0
238 48 0
-238 -46 -48 0
239 46 0
239 49 0
-239 -46 -49 0
240 46 0
240 50 0
-240 -46 -50 0
241 46 0
241 51 0
-241 -46 -51 0
242 46 0
242 52 0
-242 -46 -52 0
243 46 0
243 53 0
-243 -46 -53 0
244 46 0
244 54 0
-244 -46 -54 0
245 47 0
245 48 0
-245 -47 -48 0
246 47 0
246 49 0
-246 -47 -49 0
247 47 0
247 50 0
-247 -47 -50 0
248 47 0
248 51 0
-248 -47 -51 0
249 47 0
249 52 0
-249 -47 -52 0
250 47 0
250 53 0
-250 -47 -53 0
251 47 0
251 54 0
-251 -47 -54 0
252 48 0
252 49 0
-252 -48 -49 0
253 48 0
253 50 0
-253 -48 -50 0
254 48 0
254 51 0
-254 -48 -51 0
255 48 0
255 52 0
-255 -48 -52 0
256 48 0
256 53 0
-256 -48 -53 0
257 48 0
257 54 0
-257 -48 -54 0
258 49 0
258 50 0
-258 -49 -50 0
259 49 0
259 51 0
-259 -49 -51 0
260 49 0
260 52 0
-260 -49 -52 0
261 49 0
261 53 0
-261 -49 -53 0
262 49 0
262 54 0
-262 -49 -54 0
263 50 0
263 51 0
-263 -50 -51 0
264 50 0
264 52 0
-264 -50 -52 0
265 50 0
265 53 0
-265 -50 -53 0
266 50 0
266 54 0
-266 -50 -54 0
267 51 0
267 52 0
-267 -51 -52 0
268 51 0
268 53 0
-268 -51 -53 0
269 51 0
269 54 0
-269 -51 -54 0
270 52 0
270 53 0
-270 -52 -53 0
271 52 0
271 54 0
-271 -52 -54 0
272 53 0
272 54 0
-272 -53 -54 0
273 55 0
273 56 0
-273 -55 -56 0
274 55 0
274 57 0
-274 -55 -57 0
275 55 0
275 58 0
-275 -55 -58 0
276 55 0
276 59 0
-276 -55 -59 0
277 55 0
277 60 0
-277 -55 -60 0
278 55 0
278 61 0
-278 -55 -61 0
279 55 0
279 62 0
-279 -55 -62 0
280 55 0
280 63 0
-280 -55 -63 0
281 55 0
281 64 0
-281 -55 -64 0
282 56 0
282 57 0
-282 -56 -57 0
283 56 0
283 58 0
-283 -56 -58 0
284 56 0
284 59 0
-284 -56 -59 0
285 56 0
285 60 0
-285 -56 -60 0
286 56 0
286 61 0
-286 -56 -61 0
287 56 0
287 62 0
-287 -56 -62 0
288 56 0
288 63 0
-288 -56 -63 0
289 56 0
289 64 0
-289 -56 -64 0
290 57 0
290 58 0
-290 -57 -58 0
291 57 0
291 59 0
-291 -57 -59 0
292 57 0
292 60 0
-292 -57 -60 0
293 57 0
293 61 0
-293 -57 -61 0
294 57 0
294 62 0
-294 -57 -62 0
295 57 0
295 63 0
-295 -57 -63 0
296 57 0
296 64 0
-296 -57 -64 0
297 58 0
297 59 0
-297 -58 -59 0
298 58 0
298 60 0
-298 -58 -60 0
299 58 0
299 61 0
-299 -58 -61 0
300 58 0
300 62 0
-300 -58 -62 0
301 58 0
301 63 0
-301 -58 -63 0
302 58 0
302 64 0
-302 -58 -64 0
303 59 0
303 60 0
-303 -59 -60 0
304 59 0
304 61 0
-304 -59 -61 0
305 59 0
305 62 0
-305 -59 -62 0
306 59 0
306 63 0
-306 -59 -63 0
307 59 0
307 64 0
-307 -59 -64 0
308 60 0
308 61 0
-308 -60 -61 0
309 60 0
309 62 0
-309 -60 -62 0
310 60 0
310 63 0
-310 -60 -63 0
311 60 0
311 64 0
-311 -60 -64 0
312 61 0
312 62 0
-312 -61 -62 0
313 61 0
313 63 0
-313 -61 -63 0
314 61 0
314 64 0
-314 -61 -64 0
315 62 0
315 63 0
-315 -62 -63 0
316 62 0
316 64 0
-316 -62 -64 0
317 63 0
317 64 0
-317 -63 -64 0
318 65 0
318 66 0
-318 -65 -66 0
319 65 0
319 67 0
-319 -65 -67 0
320 65 0
320 68 0
-320 -65 -68 0
321 65 0
321 69 0
-321 -65 -69 0
322 65 0
322 70 0
-322 -65 -70 0
323 65 0
323 71 0
-323 -65 -71 0
324 65 0
324 72 0
-324 -65 -72 0
325 65 0
325 73 0
-325 -65 -73 0
326 65 0
326 74 0
-326 -65 -74 0
327 66 0
327 67 0
-327 -66 -67 0
328 66 0
328 68 0
-328 -66 -68 0
329 66 0
329 69 0
-329 -66 -69 0
330 66 0
330 70 0
-330 -66 -70 0
331 66 0
331 71 0
-331 -66 -71 0
332 66 0
332 72 0
-332 -66 -72 0
333 66 0
333 73 0
-333 -66 -73 0
334 66 0
334 74 0
-334 -66 -74 0
335 67 0
335 68 0
-335 -67 -68 0
336 67 0
336 69 0
-336 -67 -69 0
337 67 0
337 70 0
-337 -67 -70 0
338 67 0
338 71 0
-338 -67 -71 0
339 67 0
339 72 0
-339 -67 -72 0
340 67 0
340 73 0
-340 -67 -73 0
341 67 0
341 74 0
-341 -67 -74 0
342 68 0
342 69 0
-342 -68 -69 0
343 68 0
343 70 0
-343 -68 -70 0
344 68 0
344 71 0
-344 -68 -71 0
345 68 0
345 72 0
-345 -68 -72 0
346 68 0
346 73 0
-346 -68 -73 0
347 68 0
347 74 0
-347 -68 -74 0
348 69 0
348 70 0
-348 -69 -70 0
349 69 0
349 71 0
-349 -69 -71 0
350 69 0
350 72 0
-350 -69 -72 0
351 69 0
351 73 0
-351 -69 -73 0
352 69 0
352 74 0
-352 -69 -74 0
353 70 0
353 71 0
-353 -70 -71 0
354 70 0
354 72 0
-354 -70 -72 0
355 70 0
355 73 0
-355 -70 -73 0
356 70 0
356 74 0
-356 -70 -74 0
357 71 0
357 72 0
-357 -71 -72 0
358 71 0
358 73 0
-358 -71 -73 0
359 71 0
359 74 0
-359 -71 -74 0
360 72 0
360 73 0
-360 -72 -73 0
361 72 0
361 74 0
-361 -72 -74 0
362 73 0
362 74 0
-362 -73 -74 0
363 75 0
363 76 0
-363 -75 -76 0
364 75 0
364 77 0
-364 -75 -77 0
365 75 0
365 78 0
-365 -75 -78 0
366 75 0
366 79 0
-366 -75 -79 0
367 75 0
367 80 0
-367 -75 -80 0
368 75 0
368 81 0
-368 -75 -81 0
369 75 0
369 82 0
-369 -75 -82 0
370 75 0
370 83 0
-370 -75 -83 0
371 75 0
371 84 0
-371 -75 -84 0
372 76 0
372 77 0
-372 -76 -77 0
373 76 0
373 78 0
-373 -76 -78 0
374 76 0
374 79 0
-374 -76 -79 0
375 76 0
375 80 0
-375 -76 -80 0
376 76 0
376 81 0
-376 -76 -81 0
377 76 0
377 82 0
-377 -76 -82 0
378 76 0
378 83 0
-378 -76 -83 0
379 76 0
379 84 0
-379 -76 -84 0
380 77 0
380 78 0
-380 -77 -78 0
381 77 0
381 79 0
-381 -77 -79 0
382 77 0
382 80 0
-382 -77 -80 0
383 77 0
383 81 0
-383 -77 -81 0
384 77 0
384 82 0
-384 -77 -82 0
385 77 0
385 83 0
-385 -77 -83 0
386 77 0
386 84 0
-386 -77 -84 0
387 78 0
387 79 0
-387 -78 -79 0
388 78 0
388 80 0
-388 -78 -80 0
389 78 0
389 81 0
-389 -78 -81 0
390 78 0
390 82 0
-390 -78 -82 0
391 78 0
391 83 0
-391 -78 -83 0
392 78 0
392 84 0
-392 -78 -84 0
393 79 0
393 80 0
-393 -79 -80 0
394 79 0
394 81 0
-394 -79 -81 0
395 79 0
395 82 0
-395 -79 -82 0
396 79 0
396 83 0
-396 -79 -83 0
397 79 0
397 84 0
-397 -79 -84 0
398 80 0
398 81 0
-398 -80 -81 0
399 80 0
399 82 0
-399 -80 -82 0
400 80 0
400 83 0
-400 -80 -83 0
401 80 0
401 84 0
-401 -80 -84 0
402 81 0
402 82 0
-402 -81 -82 0
403 81 0
403 83 0
-403 -81 -83 0
404 81 0
404 84 0
-404 -81 -84 0
405 82 0
405 83 0
-405 -82 -83 0
406 82 0
406 84 0
-406 -82 -84 0
407 83 0
407 84 0
-407 -83 -84 0
408 85 0
408 86 0
-408 -85 -86 0
409 85 0
409 87 0
-409 -85 -87 0
410 85 0
410 88 0
-410 -85 -88 0
411 85 0
411 89 0
-411 -85 -89 0
412 85 0
412 90 0
-412 -85 -90 0
413 85 0
413 91 0
-413 -85 -91 0
414 85 0
414 92 0
-414 -85 -92 0
415 85 0
415 93 0
-415 -85 -93 0
416 85 0
416 94 0
-416 -85 -94 0
417 86 0
417 87 0
-417 -86 -87 0
418 86 0
418 88 0
-418 -86 -88 0
419 86 0
419 89 0
-419 -86 -89 0
420 86 0
420 90 0
-420 -86 -90 0
421 86 0
421 91 0
-421 -86 -91 0
422 86 0
422 92 0
-422 -86 -92 0
423 86 0
423 93 0
-423 -86 -93 0
424 86 0
424 94 0
-424 -86 -94 0
425 87 0
425 88 0
-425 -87 -88 0
426 87 0
426 89 0
-426 -87 -89 0
427 87 0
427 90 0
-427 -87 -90 0
428 87 0
428 91 0
-428 -87 -91 0
429 87 0
429 92 0
-429 -87 -92 0
430 87 0
430 93 0
-430 -87 -93 0
431 87 0
431 94 0
-431 -87 -94 0
432 88 0
432 89 0
-432 -88 -89 0
433 88 0
433 90 0
-433 -88 -90 0
434 88 0
434 91 0
-434 -88 -91 0
435 88 0
435 92 0
-435 -88 -92 0
436 88 0
436 93 0
-436 -88 -93 0
437 88 0
437 94 0
-437 -88 -94 0
438 89 0
438 90 0
-438 -89 -90 0
439 89 0
439 91 0
-439 -89 -91 0
440 89 0
440 92 0
-440 -89 -92 0
441 89 0
441 93 0
-441 -89 -93 0
442 89 0
442 94 0
-442 -89 -94 0
443 90 0
443 91 0
-443 -90 -91 0
444 90 0
444 92 0
-444 -90 -92 0
445 90 0
445 93 0
-445 -90 -93 0
446 90 0
446 94 0
-446 -90 -94 0
447 91 0
447 92 0
-447 -91 -92 0
448 91 0
448 93 0
-448 -91 -93 0
449 91 0
449 94 0
-449 -91 -94 0
450 92 0
450 93 0
-450 -92 -93 0
451 92 0
451 94 0
-451 -92 -94 0
452 93 0
452 94 0
-452 -93 -94 0
453 95 0
453 96 0
-453 -95 -96 0
454 95 0
454 97 0
-454 -95 -97 0
455 95 0
455 98 0
-455 -95 -98 0
456 95 0
456 99 0
-456 -95 -99 0
457 95 0
457 100 0
-457 -95 -100 0
458 95 0
458 101 0
-458 -95 -101 0
459 95 0
459 102 0
-459 -95 -102 0
460 95 0
460 103 0
-460 -95 -103 0
461 95 0
461 104 0
-461 -95 -104 0
462 96 0
462 97 0
-462 -96 -97 0
463 96 0
463 98 0
-463 -96 -98 0
464 96 0
464 99 0
-464 -96 -99 0
465 96 0
465 100 0
-465 -96 -100 0
466 96 0
466 101 0
-466 -96 -101 0
467 96 0
467 102 0
-467 -96 -102 0
468 96 0
468 103 0
-468 -96 -103 0
469 96 0
469 104 0
-469 -96 -104 0
470 97 0
470 98 0
-470 -97 -98 0
471 97 0
471 99 0
-471 -97 -99 0
472 97 0
472 100 0
-472 -97 -100 0
473 97 0
473 101 0
-473 -97 -101 0
474 97 0
474 102 0
-474 -97 -102 0
475 97 0
475 103 0
-475 -97 -103 0
476 97 0
476 104 0
-476 -97 -104 0
477 98 0
477 99 0
-477 -98 -99 0
478 98 0
478 100 0
-478 -98 -100 0
479 98 0
479 101 0
-479 -98 -101 0
480 98 0
480 102 0
-480 -98 -102 0
481 98 0
481 103 0
-481 -98 -103 0
482 98 0
482 104 0
-482 -98 -104 0
483 99 0
483 100 0
-483 -99 -100 0
484 99 0
484 101 0
-484 -99 -101 0
485 99 0
485 102 0
-485 -99 -102 0
486 99 0
486 103 0
-486 -99 -103 0
487 99 0
487 104 0
-487 -99 -104 0
488 100 0
488 101 0
-488 -100 -101 0
489 100 0
489 102 0
-489 -100 -102 0
490 100 0
490 103 0
-490 -100 -103 0
491 100 0
491 104 0
-491 -100 -104 0
492 101 0
492 102 0
-492 -101 -102 0
493 101 0
493 103 0
-493 -101 -103 0
494 101 0
494 104 0
-494 -101 -104 0
495 102 0
495 103 0
-495 -102 -103 0
496 102 0
496 104 0
-496 -102 -104 0
497 103 0
497 104 0
-497 -103 -104 0
498 105 0
498 106 0
-498 -105 -106 0
499 105 0
499 107 0
-499 -105 -107 0
500 105 0
500 108 0
-500 -105 -108 0
501 105 0
501 109 0
-501 -105 -109 0
502 105 0
502 110 0
-502 -105 -110 0
503 105 0
503 111 0
-503 -105 -111 0
504 105 0
504 112 0
-504 -105 -112 0
505 105 0
505 113 0
-505 -105 -113 0
506 105 0
506 114 0
-506 -105 -114 0
507 106 0
507 107 0
-507 -106 -107 0
508 106 0
508 108 0
-508 -106 -108 0
509 106 0
509 109 0
-509 -106 -109 0
510 106 0
510 110 0
-510 -106 -110 0
511 106 0
511 111 0
-511 -106 -111 0
512 106 0
512 112 0
-512 -106 -112 0
513 106 0
513 113 0
-513 -106 -113 0
514 106 0
514 114 0
-514 -106 -114 0
515 107 0
515 108 0
-515 -107 -108 0
516 107 0
516 109 0
-516 -107 -109 0
517 107 0
517 110 0
-517 -107 -110 0
518 107 0
518 111 0
-518 -107 -111 0
519 107 0
519 112 0
-519 -107 -112 0
520 107 0
520 113 0
-520 -107 -113 0
521 107 0
521 114 0
-521 -107 -114 0
522 108 0
522 109 0
-522 -108 -109 0
523 108 0
523 110 0
-523 -108 -110 0
524 108 0
524 111 0
-524 -108 -111 0
525 108 0
525 112 0
-525 -108 -112 0
526 108 0
526 113 0
-526 -108 -113 0
527 108 0
527 114 0
-527 -108 -114 0
528 109 0
528 110 0
-528 -109 -110 0
529 109 0
529 111 0
-529 -109 -111 0
530 109 0
530 112 0
-530 -109 -112 0
531 109 0
531 113 0
-531 -109 -113 0
532 109 0
532 114 0
-532 -109 -114 0
533 110 0
533 111 0
-533 -110 -111 0
534 110 0
534 112 0
-534 -110 -112 0
535 110 0
535 113 0
-535 -110 -113 0
536 110 0
536 114 0
-536 -110 -114 0
537 111 0
537 112 0
-537 -111 -112 0
538 111 0
538 113 0
-538 -111 -113 0
539 111 0
539 114 0
-539 -111 -114 0
540 112 0
540 113 0
-540 -112 -113 0
541 112 0
541 114 0
-541 -112 -114 0
542 113 0
542 114 0
-542 -113 -114 0
-543 128 0
-543 129 0
-543 130 0
-543 131 0
-543 132 0
-543 133 0
-543 134 0
-543 135 0
-543 136 0
-543 137 0
-543 138 0
-543 139 0
-543 140 0
-543 141 0
-543 142 0
-543 143 0
-543 144 0
-543 145 0
-543 146 0
-543 147 0
-543 148 0
-543 149 0
-543 150 0
-543 151 0
-543 152 0
-543 153 0
-543 154 0
-543 155 0
-543 156 0
-543 157 0
-543 158 0
-543 159 0
-543 160 0
-543 161 0
-543 162 0
-543 163 0
-543 164 0
-543 165 0
-543 166 0
-543 167 0
-543 168 0
-543 169 0
-543 170 0
-543 171 0
-543 172 0
-543 173 0
-543 174 0
-543 175 0
-543 176 0
-543 177 0
-543 178 0
-543 179 0
-543 180 0
-543 181 0
-543 182 0
-543 183 0
-543 184 0
-543 185 0
-543 186 0
-543 187 0
-543 188 0
-543 189 0
-543 190 0
-543 191 0
-543 192 0
-543 193 0
-543 194 0
-543 195 0
-543 196 0
-543 197 0
-543 198 0
-543 199 0
-543 200 0
-543 201 0
-543 202 0
-543 203 0
-543 204 0
-543 205 0
-543 206 0
-543 207 0
-543 208 0
-543 209 0
-543 210 0
-543 211 0
-543 212 0
-543 213 0
-543 214 0
-543 215 0
-543 216 0
-543 217 0
-543 218 0
-543 219 0
-543 220 0
-543 221 0
-543 222 0
-543 223 0
-543 224 0
-543 225 0
-543 226 0
-543 227 0
-543 228 0
-543 229 0
-543 230 0
-543 231 0
-543 232 0
-543 233 0
-543 234 0
-543 235 0
-543 236 0
-543 237 0
-543 238 0
-543 239 0
-543 240 0
-543 241 0
-543 242 0
-543 243 0
-543 244 0
-543 245 0
-543 246 0
-543 247 0
-543 248 0
-543 249 0
-543 250 0
-543 251 0
-543 252 0
-543 253 0
-543 254 0
-543 255 0
-543 256 0
-543 257 0
-543 258 0
-543 259 0
-543 260 0
-543 261 0
-543 262 0
-543 263 0
-543 264 0
-543 265 0
-543 266 0
-543 267 0
-543 268 0
-543 269 0
-543 270 0
-543 271 0
-543 272 0
-543 273 0
-543 274 0
-543 275 0
-543 276 0
-543 277 0
-543 278 0
-543 279 0
-543 280 0
-543 281 0
-543 282 0
-543 283 0
-543 284 0
-543 285 0
-543 286 0
-543 287 0
-543 288 0
-543 289 0
-543 290 0
-543 291 0
-543 292 0
-543 293 0
-543 294 0
-543 295 0
-543 296 0
-543 297 0
-543 298 0
-543 299 0
-543 300 0
-543 301 0
-543 302 0
-543 303 0
-543 304 0
-543 305 0
-543 306 0
-543 307 0
-543 308 0
-543 309 0
-543 310 0
-543 311 0
-543 312 0
-543 313 0
-543 314 0
-543 315 0
-543 316 0
-543 317 0
-543 318 0
-543 319 0
-543 320 0
-543 321 0
-543 322 0
-543 323 0
-543 324 0
-543 325 0
-543 326 0
-543 327 0
-543 328 0
-543 329 0
-543 330 0
-543 331 0
-543 332 0
-543 333 0
-543 334 0
-543 335 0
-543 336 0
-543 337 0
-543 338 0
-543 339 0
-543 340 0
-543 341 0
-543 342 0
-543 343 0
-543 344 0
-543 345 0
-543 346 0
-543 347 0
-543 348 0
-543 349 0
-543 350 0
-543 351 0
-543 352 0
-543 353 0
-543 354 0
-543 355 0
-543 356 0
-543 357 0
-543 358 0
-543 359 0
-543 360 0
-543 361 0
-543 362 0
-543 363 0
-543 364 0
-543 365 0
-543 366 0
-543 367 0
-543 368 0
-543 369 0
-543 370 0
-543 371 0
-543 372 0
-543 373 0
-543 374 0
-543 375 0
-543 376 0
-543 377 0
-543 378 0
-543 379 0
-543 380 0
-543 381 0
-543 382 0
-543 383 0
-543 384 0
-543 385 0
-543 386 0
-543 387 0
-543 388 0
-543 389 0
-543 390 0
-543 391 0
-543 392 0
-543 393 0
-543 394 0
-543 395 0
-543 396 0
-543 397 0
-543 398 0
-543 399 0
-543 400 0
-543 401 0
-543 402 0
-543 403 0
-543 404 0
-543 405 0
-543 406 0
-543 407 0
-543 408 0
-543 409 0
-543 410 0
-543 411 0
-543 412 0
-543 413 0
-543 414 0
-543 415 0
-543 416 0
-543 417 0
-543 418 0
-543 419 0
-543 420 0
-543 421 0
-543 422 0
-543 423 0
-543 424 0
-543 425 0
-543 426 0
-543 427 0
-543 428 0
-543 429 0
-543 430 0
-543 431 0
-543 432 0
-543 433 0
-543 434 0
-543 435 0
-543 436 0
-543 437 0
-543 438 0
-543 439 0
-543 440 0
-543 441 0
-543 442 0
-543 443 0
-543 444 0
-543 445 0
-543 446 0
-543 447 0
-543 448 0
-543 449 0
-543 450 0
-543 451 0
-543 452 0
-543 453 0
-543 454 0
-543 455 0
-543 456 0
-543 457 0
-543 458 0
-543 459 0
-543 460 0
-543 461 0
-543 462 0
-543 463 0
-543 464 0
-543 465 0
-543 466 0
-543 467 0
-543 468 0
-543 469 0
-543 470 0
-543 471 0
-543 472 0
-543 473 0
-543 474 0
-543 475 0
-543 476 0
-543 477 0
-543 478 0
-543 479 0
-543 480 0
-543 481 0
-543 482 0
-543 483 0
-543 484 0
-543 485 0
-543 486 0
-543 487 0
-543 488 0
-543 489 0
-543 490 0
-543 491 0
-543 492 0
-543 493 0
-543 494 0
-543 495 0
-543 496 0
-543 497 0
-543 498 0
-543 499 0
-543 500 0
-543 501 0
-543 502 0
-543 503 0
-543 504 0
-543 505 0
-543 506 0
-543 507 0
-543 508 0
-543 509 0
-543 510 0
-543 511 0
-543 512 0
-543 513 0
-543 514 0
-543 515 0
-543 516 0
-543 517 0
-543 518 0
-543 519 0
-543 520 0
-543 521 0
-543 522 0
-543 523 0
-543 524 0
-543 525 0
-543 526 0
-543 527 0
-543 528 0
-543 529 0
-543 530 0
-543 531 0
-543 532 0
-543 533 0
-543 534 0
-543 535 0
-543 536 0
-543 537 0
-543 538 0
-543 539 0
-543 540 0
-543 541 0
-543 542 0
543 -128 -129 -130 -131 -132 -133 -134 -135 -136 -137 -138 -139 -140 -141 -142 -143 -144 -145 -146 -147 -148 -149 -150 -151 -152 -153 -154 -155 -156 -157 -158 -159 -160 -161 -162 -163 -164 -165 -166 -167 -168 -169 -170 -171 -172 -173 -174 -175 -176 -177 -178 -179 -180 -181 -182 -183 -184 -185 -186 -187 -188 -189 -190 -191 -192 -193 -194 -195 -196 -197 -198 -199 -200 -201 -202 -203 -204 -205 -206 -207 -208 -209 -210 -211 -212 -213 -214 -215 -216 -217 -218 -219 -220 -221 -222 -223 -224 -225 -226 -227 -228 -229 -230 -231 -232 -233 -234 -235 -236 -237 -238 -239 -240 -241 -242 -243 -244 -245 -246 -247 -248 -249 -250 -251 -252 -253 -254 -255 -256 -257 -258 -259 -260 -261 -262 -263 -264 -265 -266 -267 -268 -269 -270 -271 -272 -273 -274 -275 -276 -277 -278 -279 -280 -281 -282 -283 -284 -285 -286 -287 -288 -289 -290 -291 -292 -293 -294 -295 -296 -297 -298 -299 -300 -301 -302 -303 -304 -305 -306 -307 -308 -309 -310 -311 -312 -313 -314 -315 -316 -317 -318 -319 -320 -321 -322 -323 -324 -325 -326 -327 -328 -329 -330 -331 -332 -333 -334 -335 -336 -337 -338 -339 -340 -341 -342 -343 -344 -345 -346 -347 -348 -349 -350 -351 -352 -353 -354 -355 -356 -357 -358 -359 -360 -361 -362 -363 -364 -365 -366 -367 -368 -369 -370 -371 -372 -373 -374 -375 -376 -377 -378 -379 -380 -381 -382 -383 -384 -385 -386 -387 -388 -389 -390 -391 -392 -393 -394 -395 -396 -397 -398 -399 -400 -401 -402 -403 -404 -405 -406 -407 -408 -409 -410 -411 -412 -413 -414 -415 -416 -417 -418 -419 -420 -421 -422 -423 -424 -425 -426 -427 -428 -429 -430 -431 -432 -433 -434 -435 -436 -437 -438 -439 -440 -441 -442 -443 -444 -445 -446 -447 -448 -449 -450 -451 -452 -453 -454 -455 -456 -457 -458 -459 -460 -461 -462 -463 -464 -465 -466 -467 -468 -469 -470 -471 -472 -473 -474 -475 -476 -477 -478 -479 -480 -481 -482 -483 -484 -485 -486 -487 -488 -489 -490 -491 -492 -493 -494 -495 -496 -497 -498 -499 -500 -501 -502 -503 -504 -505 -506 -507 -508 -509 -510 -511 -512 -513 -514 -515 -516 -517 -518 -519 -520 -521 -522 -523 -524 -525 -526 -527 -528 -529 -530 -531 -532 -533 -534 -535 -536 -537 -538 -539 -540 -541 -542 0
-543 0
